p tw 66 6601 2 
1 3 
1 4 
1 5 
1 6 
1 7 
1 8 
1 9 
1 10 
1 11 
1 12 
1 13 
1 14 
1 15 
1 16 
1 17 
1 18 
1 19 
1 20 
1 21 
2 3 
2 4 
2 5 
2 6 
2 7 
2 8 
2 9 
2 10 
2 11 
2 12 
2 22 
2 23 
2 24 
2 25 
2 26 
2 27 
2 28 
2 29 
2 30 
3 4 
3 5 
3 6 
3 7 
3 8 
3 9 
3 10 
3 11 
3 13 
3 22 
3 31 
3 32 
3 33 
3 34 
3 35 
3 36 
3 37 
3 38 
4 5 
4 6 
4 7 
4 8 
4 9 
4 10 
4 11 
4 14 
4 23 
4 31 
4 39 
4 40 
4 41 
4 42 
4 43 
4 44 
4 45 
5 6 
5 7 
5 8 
5 9 
5 10 
5 11 
5 15 
5 24 
5 32 
5 39 
5 46 
5 47 
5 48 
5 49 
5 50 
5 51 
6 7 
6 8 
6 9 
6 10 
6 11 
6 16 
6 25 
6 33 
6 40 
6 46 
6 52 
6 53 
6 54 
6 55 
6 56 
7 8 
7 9 
7 10 
7 11 
7 17 
7 26 
7 34 
7 41 
7 47 
7 52 
7 57 
7 58 
7 59 
7 60 
8 9 
8 10 
8 11 
8 18 
8 27 
8 35 
8 42 
8 48 
8 53 
8 57 
8 61 
8 62 
8 63 
9 10 
9 11 
9 19 
9 28 
9 36 
9 43 
9 49 
9 54 
9 58 
9 61 
9 64 
9 65 
10 11 
10 20 
10 29 
10 37 
10 44 
10 50 
10 55 
10 59 
10 62 
10 64 
10 66 
11 21 
11 30 
11 38 
11 45 
11 51 
11 56 
11 60 
11 63 
11 65 
11 66 
12 13 
12 14 
12 15 
12 16 
12 17 
12 18 
12 19 
12 20 
12 21 
12 22 
12 23 
12 24 
12 25 
12 26 
12 27 
12 28 
12 29 
12 30 
13 14 
13 15 
13 16 
13 17 
13 18 
13 19 
13 20 
13 21 
13 22 
13 31 
13 32 
13 33 
13 34 
13 35 
13 36 
13 37 
13 38 
14 15 
14 16 
14 17 
14 18 
14 19 
14 20 
14 21 
14 23 
14 31 
14 39 
14 40 
14 41 
14 42 
14 43 
14 44 
14 45 
15 16 
15 17 
15 18 
15 19 
15 20 
15 21 
15 24 
15 32 
15 39 
15 46 
15 47 
15 48 
15 49 
15 50 
15 51 
16 17 
16 18 
16 19 
16 20 
16 21 
16 25 
16 33 
16 40 
16 46 
16 52 
16 53 
16 54 
16 55 
16 56 
17 18 
17 19 
17 20 
17 21 
17 26 
17 34 
17 41 
17 47 
17 52 
17 57 
17 58 
17 59 
17 60 
18 19 
18 20 
18 21 
18 27 
18 35 
18 42 
18 48 
18 53 
18 57 
18 61 
18 62 
18 63 
19 20 
19 21 
19 28 
19 36 
19 43 
19 49 
19 54 
19 58 
19 61 
19 64 
19 65 
20 21 
20 29 
20 37 
20 44 
20 50 
20 55 
20 59 
20 62 
20 64 
20 66 
21 30 
21 38 
21 45 
21 51 
21 56 
21 60 
21 63 
21 65 
21 66 
22 23 
22 24 
22 25 
22 26 
22 27 
22 28 
22 29 
22 30 
22 31 
22 32 
22 33 
22 34 
22 35 
22 36 
22 37 
22 38 
23 24 
23 25 
23 26 
23 27 
23 28 
23 29 
23 30 
23 31 
23 39 
23 40 
23 41 
23 42 
23 43 
23 44 
23 45 
24 25 
24 26 
24 27 
24 28 
24 29 
24 30 
24 32 
24 39 
24 46 
24 47 
24 48 
24 49 
24 50 
24 51 
25 26 
25 27 
25 28 
25 29 
25 30 
25 33 
25 40 
25 46 
25 52 
25 53 
25 54 
25 55 
25 56 
26 27 
26 28 
26 29 
26 30 
26 34 
26 41 
26 47 
26 52 
26 57 
26 58 
26 59 
26 60 
27 28 
27 29 
27 30 
27 35 
27 42 
27 48 
27 53 
27 57 
27 61 
27 62 
27 63 
28 29 
28 30 
28 36 
28 43 
28 49 
28 54 
28 58 
28 61 
28 64 
28 65 
29 30 
29 37 
29 44 
29 50 
29 55 
29 59 
29 62 
29 64 
29 66 
30 38 
30 45 
30 51 
30 56 
30 60 
30 63 
30 65 
30 66 
31 32 
31 33 
31 34 
31 35 
31 36 
31 37 
31 38 
31 39 
31 40 
31 41 
31 42 
31 43 
31 44 
31 45 
32 33 
32 34 
32 35 
32 36 
32 37 
32 38 
32 39 
32 46 
32 47 
32 48 
32 49 
32 50 
32 51 
33 34 
33 35 
33 36 
33 37 
33 38 
33 40 
33 46 
33 52 
33 53 
33 54 
33 55 
33 56 
34 35 
34 36 
34 37 
34 38 
34 41 
34 47 
34 52 
34 57 
34 58 
34 59 
34 60 
35 36 
35 37 
35 38 
35 42 
35 48 
35 53 
35 57 
35 61 
35 62 
35 63 
36 37 
36 38 
36 43 
36 49 
36 54 
36 58 
36 61 
36 64 
36 65 
37 38 
37 44 
37 50 
37 55 
37 59 
37 62 
37 64 
37 66 
38 45 
38 51 
38 56 
38 60 
38 63 
38 65 
38 66 
39 40 
39 41 
39 42 
39 43 
39 44 
39 45 
39 46 
39 47 
39 48 
39 49 
39 50 
39 51 
40 41 
40 42 
40 43 
40 44 
40 45 
40 46 
40 52 
40 53 
40 54 
40 55 
40 56 
41 42 
41 43 
41 44 
41 45 
41 47 
41 52 
41 57 
41 58 
41 59 
41 60 
42 43 
42 44 
42 45 
42 48 
42 53 
42 57 
42 61 
42 62 
42 63 
43 44 
43 45 
43 49 
43 54 
43 58 
43 61 
43 64 
43 65 
44 45 
44 50 
44 55 
44 59 
44 62 
44 64 
44 66 
45 51 
45 56 
45 60 
45 63 
45 65 
45 66 
46 47 
46 48 
46 49 
46 50 
46 51 
46 52 
46 53 
46 54 
46 55 
46 56 
47 48 
47 49 
47 50 
47 51 
47 52 
47 57 
47 58 
47 59 
47 60 
48 49 
48 50 
48 51 
48 53 
48 57 
48 61 
48 62 
48 63 
49 50 
49 51 
49 54 
49 58 
49 61 
49 64 
49 65 
50 51 
50 55 
50 59 
50 62 
50 64 
50 66 
51 56 
51 60 
51 63 
51 65 
51 66 
52 53 
52 54 
52 55 
52 56 
52 57 
52 58 
52 59 
52 60 
53 54 
53 55 
53 56 
53 57 
53 61 
53 62 
53 63 
54 55 
54 56 
54 58 
54 61 
54 64 
54 65 
55 56 
55 59 
55 62 
55 64 
55 66 
56 60 
56 63 
56 65 
56 66 
57 58 
57 59 
57 60 
57 61 
57 62 
57 63 
58 59 
58 60 
58 61 
58 64 
58 65 
59 60 
59 62 
59 64 
59 66 
60 63 
60 65 
60 66 
61 62 
61 63 
61 64 
61 65 
62 63 
62 64 
62 66 
63 65 
63 66 
64 65 
64 66 
65 66 
